SECTION Graph
Nodes 365
Edges 364

E 2 1017 101
E 2 1048 101
E 7 1056 101
E 7 1076 101
E 7 1189 101
E 22 1001 101
E 22 1188 101
E 27 1123 101
E 27 1158 101
E 38 1083 101
E 38 1116 101
E 40 1129 101
E 40 1140 101
E 43 1131 101
E 43 1187 101
E 49 1058 101
E 49 1117 101
E 50 1076 101
E 50 1194 101
E 54 1029 101
E 54 1143 101
E 60 1112 101
E 60 1180 101
E 66 1085 101
E 66 1186 101
E 76 1014 101
E 76 1158 101
E 86 1114 101
E 86 1146 101
E 92 1050 101
E 92 1077 101
E 96 1120 101
E 96 1154 101
E 101 1088 101
E 101 1162 101
E 101 1181 101
E 103 1100 101
E 103 1156 101
E 125 1148 101
E 125 1176 101
E 142 1114 101
E 142 1122 101
E 147 1092 101
E 147 1138 101
E 148 1037 101
E 148 1105 101
E 148 1138 101
E 149 1022 101
E 149 1118 101
E 154 1009 101
E 154 1184 101
E 154 1198 101
E 155 1032 101
E 155 1132 101
E 157 1094 101
E 157 1103 101
E 158 1040 101
E 158 1123 101
E 163 1013 101
E 163 1065 101
E 163 1132 101
E 163 1185 101
E 168 1001 101
E 168 1152 101
E 186 1088 101
E 186 1188 101
E 194 1148 101
E 194 1159 101
E 197 1128 101
E 197 1186 101
E 211 1067 101
E 211 1171 101
E 218 1066 101
E 218 1154 101
E 218 1167 101
E 224 1038 101
E 224 1062 101
E 234 1135 101
E 234 1159 101
E 235 1030 101
E 235 1043 101
E 235 1127 101
E 248 1024 101
E 248 1159 101
E 254 1036 101
E 254 1193 101
E 256 1125 101
E 256 1197 101
E 259 1123 101
E 259 1174 101
E 260 1011 101
E 260 1121 101
E 266 1009 101
E 266 1142 101
E 269 1026 101
E 269 1069 101
E 286 1005 101
E 286 1153 101
E 288 1160 101
E 288 1196 101
E 306 1094 101
E 306 1180 101
E 307 1080 101
E 307 1175 101
E 308 1035 101
E 308 1074 102
E 310 1007 101
E 310 1097 101
E 313 1038 101
E 313 1093 101
E 321 1033 101
E 321 1050 101
E 324 1006 101
E 324 1088 101
E 325 1041 101
E 325 1177 101
E 328 1049 101
E 328 1180 101
E 337 1020 101
E 337 1151 101
E 349 1015 101
E 349 1097 101
E 352 1010 101
E 352 1149 101
E 358 1063 101
E 358 1088 102
E 361 1028 101
E 361 1182 101
E 362 1177 101
E 362 1196 101
E 365 1095 101
E 365 1098 101
E 365 1183 101
E 366 1096 101
E 366 1097 101
E 368 1093 101
E 368 1157 101
E 382 1073 101
E 382 1091 101
E 389 1026 101
E 389 1190 101
E 397 1034 101
E 397 1156 101
E 397 1193 101
E 407 1117 101
E 407 1154 101
E 407 1159 101
E 416 1068 101
E 416 1145 101
E 416 1148 101
E 420 1020 101
E 420 1191 101
E 445 1024 101
E 445 1111 101
E 446 1004 101
E 446 1092 101
E 448 1025 101
E 448 1200 101
E 476 1109 101
E 476 1163 101
E 479 1016 101
E 479 1053 101
E 480 1012 101
E 480 1029 101
E 480 1183 101
E 482 1150 101
E 482 1175 101
E 509 1020 101
E 509 1045 102
E 509 1088 101
E 509 1158 101
E 516 1092 101
E 516 1156 101
E 519 1110 101
E 519 1166 101
E 520 1024 101
E 520 1115 101
E 522 1128 101
E 522 1163 101
E 526 1060 101
E 526 1091 101
E 527 1044 101
E 527 1072 101
E 529 1076 101
E 529 1192 101
E 538 1037 101
E 538 1039 101
E 544 1158 101
E 544 1159 101
E 545 1004 101
E 545 1064 101
E 546 1027 101
E 546 1108 101
E 550 1092 101
E 550 1158 101
E 561 1035 101
E 561 1047 101
E 561 1199 101
E 562 1015 101
E 562 1022 101
E 563 1076 101
E 563 1172 101
E 565 1065 101
E 565 1141 101
E 587 1102 101
E 587 1187 101
E 591 1023 101
E 591 1116 101
E 591 1159 101
E 592 1009 101
E 592 1060 101
E 602 1020 101
E 602 1052 101
E 602 1107 101
E 605 1032 101
E 605 1129 101
E 607 1014 101
E 607 1075 101
E 607 1161 101
E 609 1008 101
E 609 1009 101
E 610 1079 101
E 610 1132 101
E 621 1004 101
E 621 1124 101
E 627 1054 101
E 627 1092 101
E 627 1183 101
E 628 1046 101
E 628 1133 101
E 629 1059 101
E 629 1154 101
E 630 1014 101
E 630 1128 101
E 630 1129 101
E 630 1177 101
E 641 1088 101
E 641 1165 101
E 646 1031 101
E 646 1112 101
E 659 1062 101
E 659 1082 101
E 660 1057 101
E 660 1076 101
E 661 1069 101
E 661 1134 101
E 686 1106 101
E 686 1117 101
E 692 1064 101
E 692 1153 101
E 698 1084 101
E 698 1186 101
E 701 1018 101
E 701 1092 101
E 703 1032 101
E 703 1110 101
E 705 1123 101
E 705 1197 101
E 711 1014 101
E 711 1102 101
E 716 1019 101
E 716 1041 101
E 719 1032 101
E 719 1155 101
E 719 1195 101
E 724 1050 101
E 724 1055 101
E 725 1086 102
E 725 1115 101
E 728 1028 101
E 728 1038 101
E 728 1126 101
E 729 1010 101
E 729 1021 101
E 729 1101 101
E 733 1046 101
E 733 1060 101
E 733 1092 101
E 743 1044 101
E 743 1163 101
E 745 1076 101
E 745 1088 101
E 745 1136 101
E 747 1099 101
E 747 1187 101
E 756 1025 101
E 756 1134 101
E 776 1006 101
E 776 1137 101
E 779 1047 101
E 779 1050 101
E 792 1003 101
E 792 1048 101
E 793 1043 101
E 793 1071 101
E 794 1166 101
E 794 1173 101
E 807 1076 101
E 807 1089 101
E 807 1113 101
E 828 1139 101
E 828 1187 101
E 836 1027 101
E 836 1040 101
E 836 1069 101
E 839 1097 101
E 839 1168 101
E 839 1179 101
E 867 1064 101
E 867 1078 101
E 867 1090 102
E 870 1070 101
E 870 1136 101
E 872 1095 101
E 872 1144 101
E 878 1124 101
E 878 1130 101
E 885 1075 101
E 885 1081 102
E 889 1014 101
E 889 1175 101
E 893 1006 101
E 893 1010 101
E 901 1051 101
E 901 1103 101
E 904 1061 101
E 904 1136 101
E 904 1182 101
E 920 1136 101
E 920 1147 101
E 922 1004 101
E 922 1050 101
E 930 1042 101
E 930 1046 101
E 930 1169 101
E 932 1030 101
E 932 1182 101
E 945 1002 101
E 945 1003 101
E 947 1119 101
E 947 1136 101
E 952 1041 101
E 952 1178 101
E 958 1030 101
E 958 1048 101
E 958 1114 101
E 961 1087 101
E 961 1132 101
E 970 1121 101
E 970 1128 101
E 976 1104 101
E 976 1186 101
E 979 1022 101
E 979 1156 101
E 987 1093 101
E 987 1164 101
E 988 1016 101
E 988 1156 101
E 993 1171 101
E 993 1197 101
E 995 1094 101
E 995 1123 101
E 997 1149 101
E 997 1170 101
END
SECTION Terminals
T 1001
T 1002
T 1003
T 1004
T 1005
T 1006
T 1007
T 1008
T 1009
T 1010
T 1011
T 1012
T 1013
T 1014
T 1015
T 1016
T 1017
T 1018
T 1019
T 1020
T 1021
T 1022
T 1023
T 1024
T 1025
T 1026
T 1027
T 1028
T 1029
T 1030
T 1031
T 1032
T 1033
T 1034
T 1035
T 1036
T 1037
T 1038
T 1039
T 1040
T 1041
T 1042
T 1043
T 1044
T 1045
T 1046
T 1047
T 1048
T 1049
T 1050
T 1051
T 1052
T 1053
T 1054
T 1055
T 1056
T 1057
T 1058
T 1059
T 1060
T 1061
T 1062
T 1063
T 1064
T 1065
T 1066
T 1067
T 1068
T 1069
T 1070
T 1071
T 1072
T 1073
T 1074
T 1075
T 1076
T 1077
T 1078
T 1079
T 1080
T 1081
T 1082
T 1083
T 1084
T 1085
T 1086
T 1087
T 1088
T 1089
T 1090
T 1091
T 1092
T 1093
T 1094
T 1095
T 1096
T 1097
T 1098
T 1099
T 1100
T 1101
T 1102
T 1103
T 1104
T 1105
T 1106
T 1107
T 1108
T 1109
T 1110
T 1111
T 1112
T 1113
T 1114
T 1115
T 1116
T 1117
T 1118
T 1119
T 1120
T 1121
T 1122
T 1123
T 1124
T 1125
T 1126
T 1127
T 1128
T 1129
T 1130
T 1131
T 1132
T 1133
T 1134
T 1135
T 1136
T 1137
T 1138
T 1139
T 1140
T 1141
T 1142
T 1143
T 1144
T 1145
T 1146
T 1147
T 1148
T 1149
T 1150
T 1151
T 1152
T 1153
T 1154
T 1155
T 1156
T 1157
T 1158
T 1159
T 1160
T 1161
T 1162
T 1163
T 1164
T 1165
T 1166
T 1167
T 1168
T 1169
T 1170
T 1171
T 1172
T 1173
T 1174
T 1175
T 1176
T 1177
T 1178
T 1179
T 1180
T 1181
T 1182
T 1183
T 1184
T 1185
T 1186
T 1187
T 1188
T 1189
T 1190
T 1191
T 1192
T 1193
T 1194
T 1195
T 1196
T 1197
T 1198
T 1199
T 1200
END
SECTION Cost
36770
END
